Welcome to the CBC MILP Solver 
Version: 2.10.12 
Build Date: Aug 20 2024 

command line - /opt/homebrew/bin/cbc computational_data/real_data/lp/wdbc_trial_017_margin.lp seconds 10.0 solve solu computational_data/real_data/solutions/wdbc_trial_017_margin.sol (default strategy 1)
 CoinLpIO::readLp(): Maximization problem reformulated as minimization
Coin0009I Switching back to maximization to get correct duals etc
seconds was changed from 1e+100 to 10
Continuous objective value is 111.434 - 0.00 seconds
Cgl0003I 0 fixed, 0 tightened bounds, 56 strengthened rows, 0 substitutions
Cgl0003I 0 fixed, 0 tightened bounds, 69 strengthened rows, 0 substitutions
Cgl0003I 0 fixed, 0 tightened bounds, 61 strengthened rows, 0 substitutions
Cgl0003I 0 fixed, 0 tightened bounds, 40 strengthened rows, 0 substitutions
Cgl0003I 0 fixed, 0 tightened bounds, 23 strengthened rows, 0 substitutions
Cgl0003I 0 fixed, 0 tightened bounds, 15 strengthened rows, 0 substitutions
Cgl0003I 0 fixed, 0 tightened bounds, 9 strengthened rows, 0 substitutions
Cgl0003I 0 fixed, 0 tightened bounds, 3 strengthened rows, 0 substitutions
Cgl0003I 0 fixed, 0 tightened bounds, 2 strengthened rows, 0 substitutions
Cgl0004I processed model has 85 rows, 50 columns (50 integer (49 of which binary)) and 1031 elements
Cbc0038I Initial state - 3 integers unsatisfied sum - 1.14286
Cbc0038I Pass   1: suminf.    0.85714 (2) obj. 111.149 iterations 5
Cbc0038I Solution found of 110.006
Cbc0038I Cleaned solution of 110.006
Cbc0038I Before mini branch and bound, 47 integers at bound fixed and 0 continuous
Cbc0038I Full problem 85 rows 50 columns, reduced to 0 rows 0 columns
Cbc0038I Mini branch and bound did not improve solution (0.01 seconds)
Cbc0038I Round again with cutoff of 110.149
Cbc0038I Pass   2: suminf.    0.85714 (2) obj. 111.149 iterations 0
Cbc0038I Pass   3: suminf.    0.14287 (1) obj. 110.149 iterations 5
Cbc0038I Pass   4: suminf.    0.28571 (1) obj. 110.291 iterations 1
Cbc0038I Pass   5: suminf.    1.00001 (3) obj. 110.149 iterations 5
Cbc0038I Pass   6: suminf.    1.00001 (3) obj. 110.149 iterations 2
Cbc0038I Pass   7: suminf.    1.00001 (3) obj. 110.149 iterations 1
Cbc0038I Pass   8: suminf.    1.00001 (3) obj. 110.149 iterations 1
Cbc0038I Pass   9: suminf.    1.00001 (3) obj. 110.149 iterations 2
Cbc0038I Pass  10: suminf.    1.42856 (4) obj. 110.149 iterations 4
Cbc0038I Pass  11: suminf.    0.85715 (3) obj. 110.149 iterations 1
Cbc0038I Pass  12: suminf.    1.00001 (3) obj. 110.149 iterations 3
Cbc0038I Pass  13: suminf.    1.00001 (3) obj. 110.149 iterations 0
Cbc0038I Pass  14: suminf.    1.00001 (3) obj. 110.149 iterations 1
Cbc0038I Pass  15: suminf.    1.00001 (3) obj. 110.149 iterations 1
Cbc0038I Pass  16: suminf.    1.00001 (3) obj. 110.149 iterations 3
Cbc0038I Pass  17: suminf.    1.42856 (4) obj. 110.149 iterations 3
Cbc0038I Pass  18: suminf.    0.85715 (3) obj. 110.149 iterations 4
Cbc0038I Pass  19: suminf.    1.00001 (3) obj. 110.149 iterations 2
Cbc0038I Pass  20: suminf.    1.00001 (3) obj. 110.149 iterations 0
Cbc0038I Pass  21: suminf.    1.00001 (3) obj. 110.149 iterations 1
Cbc0038I Pass  22: suminf.    1.00001 (3) obj. 110.149 iterations 1
Cbc0038I Pass  23: suminf.    1.00001 (3) obj. 110.149 iterations 4
Cbc0038I Pass  24: suminf.    1.42856 (4) obj. 110.149 iterations 8
Cbc0038I Pass  25: suminf.    0.85715 (3) obj. 110.149 iterations 40
Cbc0038I Pass  26: suminf.    1.00001 (3) obj. 110.149 iterations 1
Cbc0038I Pass  27: suminf.    1.00001 (3) obj. 110.149 iterations 0
Cbc0038I Pass  28: suminf.    1.00001 (3) obj. 110.149 iterations 2
Cbc0038I Pass  29: suminf.    1.00001 (3) obj. 110.149 iterations 1
Cbc0038I Pass  30: suminf.    1.00001 (3) obj. 110.149 iterations 2
Cbc0038I Pass  31: suminf.    1.42856 (4) obj. 110.149 iterations 5
Cbc0038I Before mini branch and bound, 44 integers at bound fixed and 0 continuous
Cbc0038I Mini branch and bound did not improve solution (0.01 seconds)
Cbc0038I Round again with cutoff of 110.406
Cbc0038I Pass  31: suminf.    0.85714 (2) obj. 111.149 iterations 0
Cbc0038I Pass  32: suminf.    0.40001 (2) obj. 110.406 iterations 5
Cbc0038I Pass  33: suminf.    0.71429 (2) obj. 110.863 iterations 1
Cbc0038I Pass  34: suminf.    0.42857 (1) obj. 110.577 iterations 1
Cbc0038I Pass  35: suminf.    1.17142 (3) obj. 110.406 iterations 9
Cbc0038I Pass  36: suminf.    1.11429 (3) obj. 110.406 iterations 11
Cbc0038I Pass  37: suminf.    1.17142 (3) obj. 110.406 iterations 3
Cbc0038I Pass  38: suminf.    1.17142 (3) obj. 110.406 iterations 4
Cbc0038I Pass  39: suminf.    1.17142 (4) obj. 110.406 iterations 7
Cbc0038I Pass  40: suminf.    1.17142 (3) obj. 110.406 iterations 16
Cbc0038I Pass  41: suminf.    1.17142 (4) obj. 110.406 iterations 13
Cbc0038I Pass  42: suminf.    1.11429 (3) obj. 110.406 iterations 11
Cbc0038I Pass  43: suminf.    1.17142 (3) obj. 110.406 iterations 5
Cbc0038I Pass  44: suminf.    1.17142 (4) obj. 110.406 iterations 13
Cbc0038I Pass  45: suminf.    1.11429 (3) obj. 110.406 iterations 15
Cbc0038I Pass  46: suminf.    1.17142 (3) obj. 110.406 iterations 5
Cbc0038I Pass  47: suminf.    1.17142 (3) obj. 110.406 iterations 6
Cbc0038I Pass  48: suminf.    1.17142 (4) obj. 110.406 iterations 9
Cbc0038I Pass  49: suminf.    1.17142 (3) obj. 110.406 iterations 15
Cbc0038I Pass  50: suminf.    1.17142 (3) obj. 110.406 iterations 13
Cbc0038I Pass  51: suminf.    1.17142 (4) obj. 110.406 iterations 11
Cbc0038I Pass  52: suminf.    1.17142 (4) obj. 110.406 iterations 23
Cbc0038I Pass  53: suminf.    1.11429 (3) obj. 110.406 iterations 7
Cbc0038I Pass  54: suminf.    1.17142 (3) obj. 110.406 iterations 2
Cbc0038I Pass  55: suminf.    0.42857 (1) obj. 110.577 iterations 2
Cbc0038I Pass  56: suminf.    0.40001 (2) obj. 110.406 iterations 2
Cbc0038I Pass  57: suminf.    0.71429 (2) obj. 110.863 iterations 1
Cbc0038I Pass  58: suminf.    1.17142 (3) obj. 110.406 iterations 20
Cbc0038I Pass  59: suminf.    1.17142 (3) obj. 110.406 iterations 10
Cbc0038I Pass  60: suminf.    1.17142 (4) obj. 110.406 iterations 14
Cbc0038I No solution found this major pass
Cbc0038I Before mini branch and bound, 40 integers at bound fixed and 0 continuous
Cbc0038I Mini branch and bound did not improve solution (0.01 seconds)
Cbc0038I After 0.01 seconds - Feasibility pump exiting with objective of 110.006 - took 0.01 seconds
Cbc0012I Integer solution of 110.00566 found by feasibility pump after 0 iterations and 0 nodes (0.01 seconds)
Cbc0031I 5 added rows had average density of 19.8
Cbc0013I At root node, 17 cuts changed objective from 111.43424 to 110.00566 in 1 passes
Cbc0014I Cut generator 0 (Probing) - 0 row cuts average 0.0 elements, 0 column cuts (0 active)  in 0.000 seconds - new frequency is -100
Cbc0014I Cut generator 1 (Gomory) - 3 row cuts average 29.0 elements, 0 column cuts (0 active)  in 0.000 seconds - new frequency is 1
Cbc0014I Cut generator 2 (Knapsack) - 6 row cuts average 7.5 elements, 0 column cuts (0 active)  in 0.000 seconds - new frequency is 1
Cbc0014I Cut generator 3 (Clique) - 0 row cuts average 0.0 elements, 0 column cuts (0 active)  in 0.000 seconds - new frequency is -100
Cbc0014I Cut generator 4 (MixedIntegerRounding2) - 0 row cuts average 0.0 elements, 0 column cuts (0 active)  in 0.000 seconds - new frequency is -100
Cbc0014I Cut generator 5 (FlowCover) - 0 row cuts average 0.0 elements, 0 column cuts (0 active)  in 0.000 seconds - new frequency is -100
Cbc0014I Cut generator 6 (TwoMirCuts) - 5 row cuts average 24.2 elements, 0 column cuts (0 active)  in 0.000 seconds - new frequency is -100
Cbc0014I Cut generator 7 (ZeroHalf) - 3 row cuts average 8.3 elements, 0 column cuts (0 active)  in 0.000 seconds - new frequency is 1
Cbc0001I Search completed - best objective 110.005664, took 0 iterations and 0 nodes (0.02 seconds)
Cbc0035I Maximum depth 0, 0 variables fixed on reduced cost
Cuts at root node changed objective from 111.434 to 110.006
Probing was tried 1 times and created 0 cuts of which 0 were active after adding rounds of cuts (0.000 seconds)
Gomory was tried 1 times and created 3 cuts of which 0 were active after adding rounds of cuts (0.000 seconds)
Knapsack was tried 1 times and created 6 cuts of which 0 were active after adding rounds of cuts (0.000 seconds)
Clique was tried 1 times and created 0 cuts of which 0 were active after adding rounds of cuts (0.000 seconds)
MixedIntegerRounding2 was tried 1 times and created 0 cuts of which 0 were active after adding rounds of cuts (0.000 seconds)
FlowCover was tried 1 times and created 0 cuts of which 0 were active after adding rounds of cuts (0.000 seconds)
TwoMirCuts was tried 1 times and created 5 cuts of which 0 were active after adding rounds of cuts (0.000 seconds)
ZeroHalf was tried 1 times and created 3 cuts of which 0 were active after adding rounds of cuts (0.000 seconds)

Result - Optimal solution found

Objective value:                110.00566400
Enumerated nodes:               0
Total iterations:               0
Time (CPU seconds):             0.02
Time (Wallclock seconds):       0.02

Total time (CPU seconds):       0.02   (Wallclock seconds):       0.02

